# Solution for model sdp
# Objective value = 102
x[0.0,6.0] 0
x[0.0,10.0] 1
x[6.0,10.0] 2
x[10.0,6.0] 0
x[10.0,11.0] 0
x[16.0,5.0] 3
x[16.0,8.0] 1
x[21.0,9.0] 0
x[24.0,6.0] 0
x[24.0,10.0] 1
x[30.0,10.0] 2
x[34.0,6.0] 0
x[34.0,11.0] 0
x[40.0,5.0] 3
x[40.0,8.0] 1
x[48.0,6.0] 0
x[48.0,10.0] 1
x[54.0,8.0] 0
x[54.0,10.0] 2
x[58.0,6.0] 0
x[58.0,11.0] 0
x[62.0,7.0] 3
x[62.0,10.0] 1
x[64.0,5.0] 0
x[64.0,8.0] 0
x[69.0,9.0] 0
x[72.0,6.0] 0
x[72.0,10.0] 1
x[78.0,10.0] 2
x[82.0,6.0] 0
x[82.0,11.0] 0
x[88.0,5.0] 3
x[88.0,8.0] 1
x[96.0,6.0] 0
x[96.0,10.0] 1
x[102.0,10.0] 2
x[106.0,6.0] 0
x[106.0,11.0] 0
x[112.0,5.0] 4
x[112.0,8.0] 0
x[117.0,11.0] 1
x[120.0,8.0] 0
x[128.0,7.0] 2
x[128.0,12.0] 3
x[135.0,5.0] 0
x[135.0,7.0] 1
x[135.0,9.0] 1
x[144.0,8.0] 1
x[152.0,7.0] 2
x[152.0,12.0] 3
x[159.0,5.0] 0
x[159.0,7.0] 2
x[159.0,9.0] 0
x[164.0,10.0] 0
x[166.0,8.0] 0
x[166.0,12.0] 1
x[168.0,6.0] 0
x[168.0,10.0] 0
x[174.0,10.0] 2
x[178.0,6.0] 0
x[178.0,11.0] 0
x[184.0,5.0] 3
x[184.0,8.0] 1
x[192.0,6.0] 0
x[192.0,10.0] 1
x[198.0,10.0] 2
x[202.0,6.0] 0
x[202.0,11.0] 0
x[208.0,5.0] 3
x[208.0,8.0] 1
x[213.0,9.0] 0
x[216.0,6.0] 0
x[216.0,10.0] 1
x[222.0,10.0] 2
x[226.0,6.0] 0
x[226.0,11.0] 0
x[232.0,5.0] 3
x[232.0,8.0] 1
x[240.0,6.0] 0
x[240.0,10.0] 1
x[246.0,10.0] 2
x[250.0,6.0] 0
x[250.0,11.0] 0
x[256.0,5.0] 3
x[256.0,8.0] 1
x[261.0,9.0] 0
x[264.0,6.0] 0
x[264.0,10.0] 1
x[270.0,10.0] 2
x[274.0,6.0] 0
x[274.0,11.0] 0
x[280.0,5.0] 3
x[280.0,8.0] 1
x[288.0,8.0] 1
x[296.0,7.0] 2
x[296.0,12.0] 3
x[303.0,5.0] 0
x[303.0,7.0] 2
x[303.0,9.0] 0
x[308.0,12.0] 0
x[310.0,10.0] 1
x[312.0,8.0] 0
x[320.0,7.0] 2
x[320.0,12.0] 3
x[327.0,5.0] 0
x[327.0,7.0] 1
x[327.0,9.0] 1
y[0.0,6.0] 0
y[0.0,10.0] 1
y[6.0,10.0] 1
y[10.0,6.0] 0
y[10.0,11.0] 0
y[16.0,5.0] 1
y[16.0,8.0] 1
y[21.0,9.0] 0
y[24.0,6.0] 0
y[24.0,10.0] 1
y[30.0,10.0] 1
y[34.0,6.0] 0
y[34.0,11.0] 0
y[40.0,5.0] 1
y[40.0,8.0] 1
y[48.0,6.0] 0
y[48.0,10.0] 1
y[54.0,8.0] 0
y[54.0,10.0] 1
y[58.0,6.0] 0
y[58.0,11.0] 0
y[62.0,7.0] 1
y[62.0,10.0] 1
y[64.0,5.0] 0
y[64.0,8.0] 0
y[69.0,9.0] 0
y[72.0,6.0] 0
y[72.0,10.0] 1
y[78.0,10.0] 1
y[82.0,6.0] 0
y[82.0,11.0] 0
y[88.0,5.0] 1
y[88.0,8.0] 1
y[96.0,6.0] 0
y[96.0,10.0] 1
y[102.0,10.0] 1
y[106.0,6.0] 0
y[106.0,11.0] 0
y[112.0,5.0] 1
y[112.0,8.0] 0
y[117.0,11.0] 1
y[120.0,8.0] 0
y[128.0,7.0] 1
y[128.0,12.0] 1
y[135.0,5.0] 0
y[135.0,7.0] 1
y[135.0,9.0] 1
y[144.0,8.0] 1
y[152.0,7.0] 1
y[152.0,12.0] 1
y[159.0,5.0] 0
y[159.0,7.0] 1
y[159.0,9.0] 0
y[164.0,10.0] 0
y[166.0,8.0] 0
y[166.0,12.0] 1
y[168.0,6.0] 0
y[168.0,10.0] 0
y[174.0,10.0] 1
y[178.0,6.0] 0
y[178.0,11.0] 0
y[184.0,5.0] 1
y[184.0,8.0] 1
y[192.0,6.0] 0
y[192.0,10.0] 1
y[198.0,10.0] 1
y[202.0,6.0] 0
y[202.0,11.0] 0
y[208.0,5.0] 1
y[208.0,8.0] 1
y[213.0,9.0] 0
y[216.0,6.0] 0
y[216.0,10.0] 1
y[222.0,10.0] 1
y[226.0,6.0] 0
y[226.0,11.0] 0
y[232.0,5.0] 1
y[232.0,8.0] 1
y[240.0,6.0] 0
y[240.0,10.0] 1
y[246.0,10.0] 1
y[250.0,6.0] 0
y[250.0,11.0] 0
y[256.0,5.0] 1
y[256.0,8.0] 1
y[261.0,9.0] 0
y[264.0,6.0] 0
y[264.0,10.0] 1
y[270.0,10.0] 1
y[274.0,6.0] 0
y[274.0,11.0] 0
y[280.0,5.0] 1
y[280.0,8.0] 1
y[288.0,8.0] 1
y[296.0,7.0] 1
y[296.0,12.0] 1
y[303.0,5.0] 0
y[303.0,7.0] 1
y[303.0,9.0] 0
y[308.0,12.0] 0
y[310.0,10.0] 1
y[312.0,8.0] 0
y[320.0,7.0] 1
y[320.0,12.0] 1
y[327.0,5.0] 0
y[327.0,7.0] 1
y[327.0,9.0] 1
mu[0.0] 0
mu[1.0] 0
mu[2.0] 0
mu[3.0] 0
mu[4.0] 0
mu[5.0] 0
mu[6.0] 0
mu[7.0] 0
mu[8.0] 0
mu[9.0] 0
mu[10.0] 0
mu[11.0] 0
mu[12.0] 0
mu[13.0] 0
mu[14.0] 0
mu[15.0] 0
mu[16.0] 0
mu[17.0] 0
mu[18.0] 0
mu[19.0] 0
mu[20.0] 0
mu[21.0] 0
mu[22.0] 0
mu[23.0] 0
mu[24.0] 0
mu[25.0] 0
mu[26.0] 0
mu[27.0] 0
mu[28.0] 0
mu[29.0] 0
mu[30.0] 0
mu[31.0] 0
mu[32.0] 0
mu[33.0] 0
mu[34.0] 0
mu[35.0] 0
mu[36.0] 0
mu[37.0] 0
mu[38.0] 0
mu[39.0] 0
mu[40.0] 0
mu[41.0] 0
mu[42.0] 0
mu[43.0] 0
mu[44.0] 0
mu[45.0] 0
mu[46.0] 0
mu[47.0] 0
mu[48.0] 0
mu[49.0] 0
mu[50.0] 0
mu[51.0] 0
mu[52.0] 0
mu[53.0] 0
mu[54.0] 0
mu[55.0] 0
mu[56.0] 0
mu[57.0] 0
mu[58.0] 0
mu[59.0] 0
mu[60.0] 0
mu[61.0] 0
mu[62.0] 0
mu[63.0] 0
mu[64.0] 0
mu[65.0] 0
mu[66.0] 0
mu[67.0] 0
mu[68.0] 0
mu[69.0] 0
mu[70.0] 0
mu[71.0] 0
mu[72.0] 0
mu[73.0] 0
mu[74.0] 0
mu[75.0] 0
mu[76.0] 0
mu[77.0] 0
mu[78.0] 0
mu[79.0] 0
mu[80.0] 0
mu[81.0] 0
mu[82.0] 0
mu[83.0] 0
mu[84.0] 0
mu[85.0] 0
mu[86.0] 0
mu[87.0] 0
mu[88.0] 0
mu[89.0] 0
mu[90.0] 0
mu[91.0] 0
mu[92.0] 0
mu[93.0] 0
mu[94.0] 0
mu[95.0] 0
mu[96.0] 0
mu[97.0] 0
mu[98.0] 0
mu[99.0] 0
mu[100.0] 0
mu[101.0] 0
mu[102.0] 0
mu[103.0] 0
mu[104.0] 0
mu[105.0] 0
mu[106.0] 0
mu[107.0] 0
mu[108.0] 0
mu[109.0] 0
mu[110.0] 0
mu[111.0] 0
mu[112.0] 0
mu[113.0] 0
mu[114.0] 0
mu[115.0] 0
mu[116.0] 0
mu[117.0] 0
mu[118.0] 0
mu[119.0] 0
mu[120.0] 0
mu[121.0] 0
mu[122.0] 0
mu[123.0] 0
mu[124.0] 0
mu[125.0] 0
mu[126.0] 0
mu[127.0] 0
mu[128.0] 0
mu[129.0] 0
mu[130.0] 0
mu[131.0] 0
mu[132.0] 0
mu[133.0] 0
mu[134.0] 0
mu[135.0] 0
mu[136.0] 0
mu[137.0] 0
mu[138.0] 0
mu[139.0] 0
mu[140.0] 0
mu[141.0] 0
mu[142.0] 0
mu[143.0] 0
mu[144.0] 0
mu[145.0] 0
mu[146.0] 0
mu[147.0] 0
mu[148.0] 0
mu[149.0] 0
mu[150.0] 0
mu[151.0] 0
mu[152.0] 0
mu[153.0] 0
mu[154.0] 0
mu[155.0] 0
mu[156.0] 0
mu[157.0] 0
mu[158.0] 0
mu[159.0] 0
mu[160.0] 0
mu[161.0] 0
mu[162.0] 0
mu[163.0] 0
mu[164.0] 0
mu[165.0] 0
mu[166.0] 0
mu[167.0] 0
mu[168.0] 0
mu[169.0] 0
mu[170.0] 0
mu[171.0] 0
mu[172.0] 0
mu[173.0] 0
mu[174.0] 0
mu[175.0] 0
mu[176.0] 0
mu[177.0] 0
mu[178.0] 0
mu[179.0] 0
mu[180.0] 0
mu[181.0] 0
mu[182.0] 0
mu[183.0] 0
mu[184.0] 0
mu[185.0] 0
mu[186.0] 0
mu[187.0] 0
mu[188.0] 0
mu[189.0] 0
mu[190.0] 0
mu[191.0] 0
mu[192.0] 0
mu[193.0] 0
mu[194.0] 0
mu[195.0] 0
mu[196.0] 0
mu[197.0] 0
mu[198.0] 0
mu[199.0] 0
mu[200.0] 0
mu[201.0] 0
mu[202.0] 0
mu[203.0] 0
mu[204.0] 0
mu[205.0] 0
mu[206.0] 0
mu[207.0] 0
mu[208.0] 0
mu[209.0] 0
mu[210.0] 0
mu[211.0] 0
mu[212.0] 0
mu[213.0] 0
mu[214.0] 0
mu[215.0] 0
mu[216.0] 0
mu[217.0] 0
mu[218.0] 0
mu[219.0] 0
mu[220.0] 0
mu[221.0] 0
mu[222.0] 0
mu[223.0] 0
mu[224.0] 0
mu[225.0] 0
mu[226.0] 0
mu[227.0] 0
mu[228.0] 0
mu[229.0] 0
mu[230.0] 0
mu[231.0] 0
mu[232.0] 0
mu[233.0] 0
mu[234.0] 0
mu[235.0] 0
mu[236.0] 0
mu[237.0] 0
mu[238.0] 0
mu[239.0] 0
mu[240.0] 0
mu[241.0] 0
mu[242.0] 0
mu[243.0] 0
mu[244.0] 0
mu[245.0] 0
mu[246.0] 0
mu[247.0] 0
mu[248.0] 0
mu[249.0] 0
mu[250.0] 0
mu[251.0] 0
mu[252.0] 0
mu[253.0] 0
mu[254.0] 0
mu[255.0] 0
mu[256.0] 0
mu[257.0] 0
mu[258.0] 0
mu[259.0] 0
mu[260.0] 0
mu[261.0] 0
mu[262.0] 0
mu[263.0] 0
mu[264.0] 0
mu[265.0] 0
mu[266.0] 0
mu[267.0] 0
mu[268.0] 0
mu[269.0] 0
mu[270.0] 0
mu[271.0] 0
mu[272.0] 0
mu[273.0] 0
mu[274.0] 0
mu[275.0] 0
mu[276.0] 0
mu[277.0] 0
mu[278.0] 0
mu[279.0] 0
mu[280.0] 0
mu[281.0] 0
mu[282.0] 0
mu[283.0] 0
mu[284.0] 0
mu[285.0] 0
mu[286.0] 0
mu[287.0] 0
mu[288.0] 0
mu[289.0] 0
mu[290.0] 0
mu[291.0] 0
mu[292.0] 0
mu[293.0] 0
mu[294.0] 0
mu[295.0] 0
mu[296.0] 0
mu[297.0] 0
mu[298.0] 0
mu[299.0] 0
mu[300.0] 0
mu[301.0] 0
mu[302.0] 0
mu[303.0] 0
mu[304.0] 0
mu[305.0] 0
mu[306.0] 0
mu[307.0] 0
mu[308.0] 0
mu[309.0] 0
mu[310.0] 0
mu[311.0] 0
mu[312.0] 0
mu[313.0] 0
mu[314.0] 0
mu[315.0] 0
mu[316.0] 0
mu[317.0] 0
mu[318.0] 0
mu[319.0] 0
mu[320.0] 0
mu[321.0] 0
mu[322.0] 0
mu[323.0] 0
mu[324.0] 0
mu[325.0] 0
mu[326.0] 0
mu[327.0] 0
mu[328.0] 0
mu[329.0] 0
mu[330.0] 0
mu[331.0] 0
mu[332.0] 0
mu[333.0] 0
mu[334.0] 0
mu[335.0] 0
delta_plus[0,0.0] 0
delta_plus[0,1.0] 0
delta_plus[0,2.0] 0
delta_plus[0,3.0] 0
delta_plus[0,4.0] 0
delta_plus[0,5.0] 0
delta_plus[0,6.0] 0
delta_plus[0,7.0] 0
delta_plus[0,8.0] 0
delta_plus[0,9.0] 0
delta_plus[0,10.0] 0
delta_plus[0,11.0] 0
delta_plus[0,12.0] 0
delta_plus[0,13.0] 0
delta_plus[0,14.0] 0
delta_plus[0,15.0] 0
delta_plus[0,16.0] 0
delta_plus[0,17.0] 0
delta_plus[0,18.0] 0
delta_plus[0,19.0] 0
delta_plus[0,20.0] 0
delta_plus[0,21.0] 0
delta_plus[0,22.0] 0
delta_plus[0,23.0] 0
delta_plus[0,24.0] 0
delta_plus[0,25.0] 0
delta_plus[0,26.0] 0
delta_plus[0,27.0] 0
delta_plus[0,28.0] 0
delta_plus[0,29.0] 0
delta_plus[0,30.0] 0
delta_plus[0,31.0] 0
delta_plus[0,32.0] 0
delta_plus[0,33.0] 0
delta_plus[0,34.0] 0
delta_plus[0,35.0] 0
delta_plus[0,36.0] 0
delta_plus[0,37.0] 0
delta_plus[0,38.0] 0
delta_plus[0,39.0] 0
delta_plus[0,40.0] 0
delta_plus[0,41.0] 0
delta_plus[0,42.0] 0
delta_plus[0,43.0] 0
delta_plus[0,44.0] 0
delta_plus[0,45.0] 0
delta_plus[0,46.0] 0
delta_plus[0,47.0] 0
delta_plus[0,48.0] 0
delta_plus[0,49.0] 0
delta_plus[0,50.0] 0
delta_plus[0,51.0] 0
delta_plus[0,52.0] 0
delta_plus[0,53.0] 0
delta_plus[0,54.0] 0
delta_plus[0,55.0] 0
delta_plus[0,56.0] 0
delta_plus[0,57.0] 0
delta_plus[0,58.0] 0
delta_plus[0,59.0] 0
delta_plus[0,60.0] 0
delta_plus[0,61.0] 0
delta_plus[0,62.0] 0
delta_plus[0,63.0] 0
delta_plus[0,64.0] 0
delta_plus[0,65.0] 0
delta_plus[0,66.0] 0
delta_plus[0,67.0] 0
delta_plus[0,68.0] 0
delta_plus[0,69.0] 0
delta_plus[0,70.0] 0
delta_plus[0,71.0] 0
delta_plus[0,72.0] 0
delta_plus[0,73.0] 0
delta_plus[0,74.0] 0
delta_plus[0,75.0] 0
delta_plus[0,76.0] 0
delta_plus[0,77.0] 0
delta_plus[0,78.0] 0
delta_plus[0,79.0] 0
delta_plus[0,80.0] 0
delta_plus[0,81.0] 0
delta_plus[0,82.0] 0
delta_plus[0,83.0] 0
delta_plus[0,84.0] 0
delta_plus[0,85.0] 0
delta_plus[0,86.0] 0
delta_plus[0,87.0] 0
delta_plus[0,88.0] 0
delta_plus[0,89.0] 0
delta_plus[0,90.0] 0
delta_plus[0,91.0] 0
delta_plus[0,92.0] 0
delta_plus[0,93.0] 0
delta_plus[0,94.0] 0
delta_plus[0,95.0] 0
delta_plus[0,96.0] 0
delta_plus[0,97.0] 0
delta_plus[0,98.0] 0
delta_plus[0,99.0] 0
delta_plus[0,100.0] 0
delta_plus[0,101.0] 0
delta_plus[0,102.0] 0
delta_plus[0,103.0] 0
delta_plus[0,104.0] 0
delta_plus[0,105.0] 0
delta_plus[0,106.0] 0
delta_plus[0,107.0] 0
delta_plus[0,108.0] 0
delta_plus[0,109.0] 0
delta_plus[0,110.0] 0
delta_plus[0,111.0] 0
delta_plus[0,112.0] 0
delta_plus[0,113.0] 0
delta_plus[0,114.0] 0
delta_plus[0,115.0] 0
delta_plus[0,116.0] 0
delta_plus[0,117.0] 0
delta_plus[0,118.0] 0
delta_plus[0,119.0] 0
delta_plus[0,120.0] 0
delta_plus[0,121.0] 0
delta_plus[0,122.0] 0
delta_plus[0,123.0] 0
delta_plus[0,124.0] 0
delta_plus[0,125.0] 0
delta_plus[0,126.0] 0
delta_plus[0,127.0] 0
delta_plus[0,128.0] 0
delta_plus[0,129.0] 0
delta_plus[0,130.0] 0
delta_plus[0,131.0] 0
delta_plus[0,132.0] 0
delta_plus[0,133.0] 0
delta_plus[0,134.0] 0
delta_plus[0,135.0] 0
delta_plus[0,136.0] 0
delta_plus[0,137.0] 0
delta_plus[0,138.0] 0
delta_plus[0,139.0] 0
delta_plus[0,140.0] 0
delta_plus[0,141.0] 0
delta_plus[0,142.0] 0
delta_plus[0,143.0] 0
delta_plus[0,144.0] 0
delta_plus[0,145.0] 0
delta_plus[0,146.0] 0
delta_plus[0,147.0] 0
delta_plus[0,148.0] 0
delta_plus[0,149.0] 0
delta_plus[0,150.0] 0
delta_plus[0,151.0] 0
delta_plus[0,152.0] 0
delta_plus[0,153.0] 0
delta_plus[0,154.0] 0
delta_plus[0,155.0] 0
delta_plus[0,156.0] 0
delta_plus[0,157.0] 0
delta_plus[0,158.0] 0
delta_plus[0,159.0] 0
delta_plus[0,160.0] 0
delta_plus[0,161.0] 0
delta_plus[0,162.0] 0
delta_plus[0,163.0] 0
delta_plus[0,164.0] 0
delta_plus[0,165.0] 0
delta_plus[0,166.0] 0
delta_plus[0,167.0] 0
delta_plus[0,168.0] 0
delta_plus[0,169.0] 0
delta_plus[0,170.0] 0
delta_plus[0,171.0] 0
delta_plus[0,172.0] 0
delta_plus[0,173.0] 0
delta_plus[0,174.0] 0
delta_plus[0,175.0] 0
delta_plus[0,176.0] 0
delta_plus[0,177.0] 0
delta_plus[0,178.0] 0
delta_plus[0,179.0] 0
delta_plus[0,180.0] 0
delta_plus[0,181.0] 0
delta_plus[0,182.0] 0
delta_plus[0,183.0] 0
delta_plus[0,184.0] 0
delta_plus[0,185.0] 0
delta_plus[0,186.0] 0
delta_plus[0,187.0] 0
delta_plus[0,188.0] 0
delta_plus[0,189.0] 0
delta_plus[0,190.0] 0
delta_plus[0,191.0] 0
delta_plus[0,192.0] 0
delta_plus[0,193.0] 0
delta_plus[0,194.0] 0
delta_plus[0,195.0] 0
delta_plus[0,196.0] 0
delta_plus[0,197.0] 0
delta_plus[0,198.0] 0
delta_plus[0,199.0] 0
delta_plus[0,200.0] 0
delta_plus[0,201.0] 0
delta_plus[0,202.0] 0
delta_plus[0,203.0] 0
delta_plus[0,204.0] 0
delta_plus[0,205.0] 0
delta_plus[0,206.0] 0
delta_plus[0,207.0] 0
delta_plus[0,208.0] 0
delta_plus[0,209.0] 0
delta_plus[0,210.0] 0
delta_plus[0,211.0] 0
delta_plus[0,212.0] 0
delta_plus[0,213.0] 0
delta_plus[0,214.0] 0
delta_plus[0,215.0] 0
delta_plus[0,216.0] 0
delta_plus[0,217.0] 0
delta_plus[0,218.0] 0
delta_plus[0,219.0] 0
delta_plus[0,220.0] 0
delta_plus[0,221.0] 0
delta_plus[0,222.0] 0
delta_plus[0,223.0] 0
delta_plus[0,224.0] 0
delta_plus[0,225.0] 0
delta_plus[0,226.0] 0
delta_plus[0,227.0] 0
delta_plus[0,228.0] 0
delta_plus[0,229.0] 0
delta_plus[0,230.0] 0
delta_plus[0,231.0] 0
delta_plus[0,232.0] 0
delta_plus[0,233.0] 0
delta_plus[0,234.0] 0
delta_plus[0,235.0] 0
delta_plus[0,236.0] 0
delta_plus[0,237.0] 0
delta_plus[0,238.0] 0
delta_plus[0,239.0] 0
delta_plus[0,240.0] 0
delta_plus[0,241.0] 0
delta_plus[0,242.0] 0
delta_plus[0,243.0] 0
delta_plus[0,244.0] 0
delta_plus[0,245.0] 0
delta_plus[0,246.0] 0
delta_plus[0,247.0] 0
delta_plus[0,248.0] 0
delta_plus[0,249.0] 0
delta_plus[0,250.0] 0
delta_plus[0,251.0] 0
delta_plus[0,252.0] 0
delta_plus[0,253.0] 0
delta_plus[0,254.0] 0
delta_plus[0,255.0] 0
delta_plus[0,256.0] 0
delta_plus[0,257.0] 0
delta_plus[0,258.0] 0
delta_plus[0,259.0] 0
delta_plus[0,260.0] 0
delta_plus[0,261.0] 0
delta_plus[0,262.0] 0
delta_plus[0,263.0] 0
delta_plus[0,264.0] 0
delta_plus[0,265.0] 0
delta_plus[0,266.0] 0
delta_plus[0,267.0] 0
delta_plus[0,268.0] 0
delta_plus[0,269.0] 0
delta_plus[0,270.0] 0
delta_plus[0,271.0] 0
delta_plus[0,272.0] 0
delta_plus[0,273.0] 0
delta_plus[0,274.0] 0
delta_plus[0,275.0] 0
delta_plus[0,276.0] 0
delta_plus[0,277.0] 0
delta_plus[0,278.0] 0
delta_plus[0,279.0] 0
delta_plus[0,280.0] 0
delta_plus[0,281.0] 0
delta_plus[0,282.0] 0
delta_plus[0,283.0] 0
delta_plus[0,284.0] 0
delta_plus[0,285.0] 0
delta_plus[0,286.0] 0
delta_plus[0,287.0] 0
delta_plus[0,288.0] 0
delta_plus[0,289.0] 0
delta_plus[0,290.0] 0
delta_plus[0,291.0] 0
delta_plus[0,292.0] 0
delta_plus[0,293.0] 0
delta_plus[0,294.0] 0
delta_plus[0,295.0] 0
delta_plus[0,296.0] 0
delta_plus[0,297.0] 0
delta_plus[0,298.0] 0
delta_plus[0,299.0] 0
delta_plus[0,300.0] 0
delta_plus[0,301.0] 0
delta_plus[0,302.0] 0
delta_plus[0,303.0] 0
delta_plus[0,304.0] 0
delta_plus[0,305.0] 0
delta_plus[0,306.0] 0
delta_plus[0,307.0] 0
delta_plus[0,308.0] 0
delta_plus[0,309.0] 0
delta_plus[0,310.0] 0
delta_plus[0,311.0] 0
delta_plus[0,312.0] 0
delta_plus[0,313.0] 0
delta_plus[0,314.0] 0
delta_plus[0,315.0] 0
delta_plus[0,316.0] 0
delta_plus[0,317.0] 0
delta_plus[0,318.0] 0
delta_plus[0,319.0] 0
delta_plus[0,320.0] 0
delta_plus[0,321.0] 0
delta_plus[0,322.0] 0
delta_plus[0,323.0] 0
delta_plus[0,324.0] 0
delta_plus[0,325.0] 0
delta_plus[0,326.0] 0
delta_plus[0,327.0] 0
delta_plus[0,328.0] 0
delta_plus[0,329.0] 0
delta_plus[0,330.0] 0
delta_plus[0,331.0] 0
delta_plus[0,332.0] 0
delta_plus[0,333.0] 0
delta_plus[0,334.0] 0
delta_plus[0,335.0] 0
delta_minus[0,0.0] 0
delta_minus[0,1.0] 0
delta_minus[0,2.0] 0
delta_minus[0,3.0] 0
delta_minus[0,4.0] 0
delta_minus[0,5.0] 0
delta_minus[0,6.0] 0
delta_minus[0,7.0] 0
delta_minus[0,8.0] 0
delta_minus[0,9.0] 0
delta_minus[0,10.0] 0
delta_minus[0,11.0] 0
delta_minus[0,12.0] 0
delta_minus[0,13.0] 0
delta_minus[0,14.0] 0
delta_minus[0,15.0] 0
delta_minus[0,16.0] 0
delta_minus[0,17.0] 0
delta_minus[0,18.0] 0
delta_minus[0,19.0] 0
delta_minus[0,20.0] 0
delta_minus[0,21.0] 0
delta_minus[0,22.0] 0
delta_minus[0,23.0] 0
delta_minus[0,24.0] 0
delta_minus[0,25.0] 0
delta_minus[0,26.0] 0
delta_minus[0,27.0] 0
delta_minus[0,28.0] 0
delta_minus[0,29.0] 0
delta_minus[0,30.0] 0
delta_minus[0,31.0] 0
delta_minus[0,32.0] 0
delta_minus[0,33.0] 0
delta_minus[0,34.0] 0
delta_minus[0,35.0] 0
delta_minus[0,36.0] 0
delta_minus[0,37.0] 0
delta_minus[0,38.0] 0
delta_minus[0,39.0] 0
delta_minus[0,40.0] 0
delta_minus[0,41.0] 0
delta_minus[0,42.0] 0
delta_minus[0,43.0] 0
delta_minus[0,44.0] 0
delta_minus[0,45.0] 0
delta_minus[0,46.0] 0
delta_minus[0,47.0] 0
delta_minus[0,48.0] 0
delta_minus[0,49.0] 0
delta_minus[0,50.0] 0
delta_minus[0,51.0] 0
delta_minus[0,52.0] 0
delta_minus[0,53.0] 0
delta_minus[0,54.0] 0
delta_minus[0,55.0] 0
delta_minus[0,56.0] 0
delta_minus[0,57.0] 0
delta_minus[0,58.0] 0
delta_minus[0,59.0] 0
delta_minus[0,60.0] 0
delta_minus[0,61.0] 0
delta_minus[0,62.0] 0
delta_minus[0,63.0] 0
delta_minus[0,64.0] 0
delta_minus[0,65.0] 0
delta_minus[0,66.0] 0
delta_minus[0,67.0] 0
delta_minus[0,68.0] 0
delta_minus[0,69.0] 0
delta_minus[0,70.0] 0
delta_minus[0,71.0] 0
delta_minus[0,72.0] 0
delta_minus[0,73.0] 0
delta_minus[0,74.0] 0
delta_minus[0,75.0] 0
delta_minus[0,76.0] 0
delta_minus[0,77.0] 0
delta_minus[0,78.0] 0
delta_minus[0,79.0] 0
delta_minus[0,80.0] 0
delta_minus[0,81.0] 0
delta_minus[0,82.0] 0
delta_minus[0,83.0] 0
delta_minus[0,84.0] 0
delta_minus[0,85.0] 0
delta_minus[0,86.0] 0
delta_minus[0,87.0] 0
delta_minus[0,88.0] 0
delta_minus[0,89.0] 0
delta_minus[0,90.0] 0
delta_minus[0,91.0] 0
delta_minus[0,92.0] 0
delta_minus[0,93.0] 0
delta_minus[0,94.0] 0
delta_minus[0,95.0] 0
delta_minus[0,96.0] 0
delta_minus[0,97.0] 0
delta_minus[0,98.0] 0
delta_minus[0,99.0] 0
delta_minus[0,100.0] 0
delta_minus[0,101.0] 0
delta_minus[0,102.0] 0
delta_minus[0,103.0] 0
delta_minus[0,104.0] 0
delta_minus[0,105.0] 0
delta_minus[0,106.0] 0
delta_minus[0,107.0] 0
delta_minus[0,108.0] 0
delta_minus[0,109.0] 0
delta_minus[0,110.0] 0
delta_minus[0,111.0] 0
delta_minus[0,112.0] 0
delta_minus[0,113.0] 0
delta_minus[0,114.0] 0
delta_minus[0,115.0] 0
delta_minus[0,116.0] 0
delta_minus[0,117.0] 0
delta_minus[0,118.0] 0
delta_minus[0,119.0] 0
delta_minus[0,120.0] 0
delta_minus[0,121.0] 0
delta_minus[0,122.0] 0
delta_minus[0,123.0] 0
delta_minus[0,124.0] 0
delta_minus[0,125.0] 0
delta_minus[0,126.0] 0
delta_minus[0,127.0] 0
delta_minus[0,128.0] 0
delta_minus[0,129.0] 0
delta_minus[0,130.0] 0
delta_minus[0,131.0] 0
delta_minus[0,132.0] 0
delta_minus[0,133.0] 0
delta_minus[0,134.0] 0
delta_minus[0,135.0] 0
delta_minus[0,136.0] 0
delta_minus[0,137.0] 0
delta_minus[0,138.0] 0
delta_minus[0,139.0] 0
delta_minus[0,140.0] 0
delta_minus[0,141.0] 0
delta_minus[0,142.0] 0
delta_minus[0,143.0] 0
delta_minus[0,144.0] 0
delta_minus[0,145.0] 0
delta_minus[0,146.0] 0
delta_minus[0,147.0] 0
delta_minus[0,148.0] 0
delta_minus[0,149.0] 0
delta_minus[0,150.0] 0
delta_minus[0,151.0] 0
delta_minus[0,152.0] 0
delta_minus[0,153.0] 0
delta_minus[0,154.0] 0
delta_minus[0,155.0] 0
delta_minus[0,156.0] 0
delta_minus[0,157.0] 0
delta_minus[0,158.0] 0
delta_minus[0,159.0] 0
delta_minus[0,160.0] 0
delta_minus[0,161.0] 0
delta_minus[0,162.0] 0
delta_minus[0,163.0] 0
delta_minus[0,164.0] 0
delta_minus[0,165.0] 0
delta_minus[0,166.0] 0
delta_minus[0,167.0] 0
delta_minus[0,168.0] 0
delta_minus[0,169.0] 0
delta_minus[0,170.0] 0
delta_minus[0,171.0] 0
delta_minus[0,172.0] 0
delta_minus[0,173.0] 0
delta_minus[0,174.0] 0
delta_minus[0,175.0] 0
delta_minus[0,176.0] 0
delta_minus[0,177.0] 0
delta_minus[0,178.0] 0
delta_minus[0,179.0] 0
delta_minus[0,180.0] 0
delta_minus[0,181.0] 0
delta_minus[0,182.0] 0
delta_minus[0,183.0] 0
delta_minus[0,184.0] 0
delta_minus[0,185.0] 0
delta_minus[0,186.0] 0
delta_minus[0,187.0] 0
delta_minus[0,188.0] 0
delta_minus[0,189.0] 0
delta_minus[0,190.0] 0
delta_minus[0,191.0] 0
delta_minus[0,192.0] 0
delta_minus[0,193.0] 0
delta_minus[0,194.0] 0
delta_minus[0,195.0] 0
delta_minus[0,196.0] 0
delta_minus[0,197.0] 0
delta_minus[0,198.0] 0
delta_minus[0,199.0] 0
delta_minus[0,200.0] 0
delta_minus[0,201.0] 0
delta_minus[0,202.0] 0
delta_minus[0,203.0] 0
delta_minus[0,204.0] 0
delta_minus[0,205.0] 0
delta_minus[0,206.0] 0
delta_minus[0,207.0] 0
delta_minus[0,208.0] 0
delta_minus[0,209.0] 0
delta_minus[0,210.0] 0
delta_minus[0,211.0] 0
delta_minus[0,212.0] 0
delta_minus[0,213.0] 0
delta_minus[0,214.0] 0
delta_minus[0,215.0] 0
delta_minus[0,216.0] 0
delta_minus[0,217.0] 0
delta_minus[0,218.0] 0
delta_minus[0,219.0] 0
delta_minus[0,220.0] 0
delta_minus[0,221.0] 0
delta_minus[0,222.0] 0
delta_minus[0,223.0] 0
delta_minus[0,224.0] 0
delta_minus[0,225.0] 0
delta_minus[0,226.0] 0
delta_minus[0,227.0] 0
delta_minus[0,228.0] 0
delta_minus[0,229.0] 0
delta_minus[0,230.0] 0
delta_minus[0,231.0] 0
delta_minus[0,232.0] 0
delta_minus[0,233.0] 0
delta_minus[0,234.0] 0
delta_minus[0,235.0] 0
delta_minus[0,236.0] 0
delta_minus[0,237.0] 0
delta_minus[0,238.0] 0
delta_minus[0,239.0] 0
delta_minus[0,240.0] 0
delta_minus[0,241.0] 0
delta_minus[0,242.0] 0
delta_minus[0,243.0] 0
delta_minus[0,244.0] 0
delta_minus[0,245.0] 0
delta_minus[0,246.0] 0
delta_minus[0,247.0] 0
delta_minus[0,248.0] 0
delta_minus[0,249.0] 0
delta_minus[0,250.0] 0
delta_minus[0,251.0] 0
delta_minus[0,252.0] 0
delta_minus[0,253.0] 0
delta_minus[0,254.0] 0
delta_minus[0,255.0] 0
delta_minus[0,256.0] 0
delta_minus[0,257.0] 0
delta_minus[0,258.0] 0
delta_minus[0,259.0] 0
delta_minus[0,260.0] 0
delta_minus[0,261.0] 0
delta_minus[0,262.0] 0
delta_minus[0,263.0] 0
delta_minus[0,264.0] 0
delta_minus[0,265.0] 0
delta_minus[0,266.0] 0
delta_minus[0,267.0] 0
delta_minus[0,268.0] 0
delta_minus[0,269.0] 0
delta_minus[0,270.0] 0
delta_minus[0,271.0] 0
delta_minus[0,272.0] 0
delta_minus[0,273.0] 0
delta_minus[0,274.0] 0
delta_minus[0,275.0] 0
delta_minus[0,276.0] 0
delta_minus[0,277.0] 0
delta_minus[0,278.0] 0
delta_minus[0,279.0] 0
delta_minus[0,280.0] 0
delta_minus[0,281.0] 0
delta_minus[0,282.0] 0
delta_minus[0,283.0] 0
delta_minus[0,284.0] 0
delta_minus[0,285.0] 0
delta_minus[0,286.0] 0
delta_minus[0,287.0] 0
delta_minus[0,288.0] 0
delta_minus[0,289.0] 0
delta_minus[0,290.0] 0
delta_minus[0,291.0] 0
delta_minus[0,292.0] 0
delta_minus[0,293.0] 0
delta_minus[0,294.0] 0
delta_minus[0,295.0] 0
delta_minus[0,296.0] 0
delta_minus[0,297.0] 0
delta_minus[0,298.0] 0
delta_minus[0,299.0] 0
delta_minus[0,300.0] 0
delta_minus[0,301.0] 0
delta_minus[0,302.0] 0
delta_minus[0,303.0] 0
delta_minus[0,304.0] 0
delta_minus[0,305.0] 0
delta_minus[0,306.0] 0
delta_minus[0,307.0] 0
delta_minus[0,308.0] 0
delta_minus[0,309.0] 0
delta_minus[0,310.0] 0
delta_minus[0,311.0] 0
delta_minus[0,312.0] 0
delta_minus[0,313.0] 0
delta_minus[0,314.0] 0
delta_minus[0,315.0] 0
delta_minus[0,316.0] 0
delta_minus[0,317.0] 0
delta_minus[0,318.0] 0
delta_minus[0,319.0] 0
delta_minus[0,320.0] 0
delta_minus[0,321.0] 0
delta_minus[0,322.0] 0
delta_minus[0,323.0] 0
delta_minus[0,324.0] 0
delta_minus[0,325.0] 0
delta_minus[0,326.0] 0
delta_minus[0,327.0] 0
delta_minus[0,328.0] 0
delta_minus[0,329.0] 0
delta_minus[0,330.0] 0
delta_minus[0,331.0] 0
delta_minus[0,332.0] 0
delta_minus[0,333.0] 0
delta_minus[0,334.0] 0
delta_minus[0,335.0] 0
rho_short[16.0,5.0] 1
rho_short[40.0,5.0] 1
rho_short[64.0,5.0] 0
rho_short[88.0,5.0] 1
rho_short[112.0,5.0] 1
rho_short[135.0,5.0] 0
rho_short[159.0,5.0] 0
rho_short[184.0,5.0] 1
rho_short[208.0,5.0] 1
rho_short[232.0,5.0] 1
rho_short[256.0,5.0] 1
rho_short[280.0,5.0] 1
rho_short[303.0,5.0] 0
rho_short[327.0,5.0] 0
